Initial/4-1.cnf
p cnf 172 596
11 0
14 0
22 0
23 0
32 0
34 0
41 0
43 0
11 12 13 0
-11 -12 -13 0
12 13 14 0
-12 -13 -14 0
21 22 23 0
-21 -22 -23 0
22 23 24 0
-22 -23 -24 0
31 32 33 0
-31 -32 -33 0
32 33 34 0
-32 -33 -34 0
41 42 43 0
-41 -42 -43 0
42 43 44 0
-42 -43 -44 0
11 21 31 0
-11 -21 -31 0
21 31 41 0
-21 -31 -41 0
12 22 32 0
-12 -22 -32 0
22 32 42 0
-22 -32 -42 0
13 23 33 0
-13 -23 -33 0
23 33 43 0
-23 -33 -43 0
14 24 34 0
-14 -24 -34 0
24 34 44 0
-24 -34 -44 0
