Initial/4-1.txt
11 14 22 23 32 34 41 43